File : Instances/p57
Used 69s
27380

1 1 1 0 0 0 1 1 1 0 0 0 0 0 0 0 0 0 0 1 1 1 0 1 1 1 1 1 1 1 
7 19 21 27 2 6 21 27 27 28 29 28 8 1 28 7 1 20 24 0 27 21 23 24 23 27 24 19 29 2 19 26 26 21 27 6 20 8 24 21 7 8 6 26 8 26 8 21 19 26 24 24 2 21 8 6 25 26 7 7 29 0 7 8 20 25 0 19 19 25 7 6 19 8 23 23 20 23 8 24 23 0 26 25 29 23 19 2 27 7 28 6 25 25 0 1 28 6 0 28 28 21 25 7 29 0 29 24 24 1 19 29 27 6 6 8 28 7 23 8 26 25 28 19 26 24 2 28 26 0 28 24 25 20 1 8 1 1 28 23 6 27 19 25 25 2 24 21 27 25 24 0 23 0 8 28 2 21 8 1 1 27 20 2 23 27 23 29 1 21 1 20 19 20 26 2 0 20 29 20 23 21 2 19 25 8 28 23 0 21 2 21 6 29 7 6 7 21 20 19 
